\ Model prob_78
\ LP format - for model browsing. Use MPS format to capture full model detail.
Minimize
  151000 open[0] + 192000 open[1] + 114000 open[2] + 171000 open[3]
   + 160000 open[4] + 120000 open[5] + 2 x[0,0] + 3 x[0,1] + 3 x[0,2]
   + 3 x[0,3] + 5 x[0,4] + 4 x[0,5] + 3 x[0,6] + 5 x[0,7] + 2 x[1,0]
   + 4 x[1,1] + 2 x[1,2] + 4 x[1,3] + 5 x[1,4] + x[1,5] + 4 x[1,6]
   + 2 x[1,7] + 5 x[2,0] + 4 x[2,1] + x[2,2] + x[2,3] + 3 x[2,4] + 3 x[2,5]
   + 2 x[2,6] + 4 x[2,7] + 4 x[3,0] + 3 x[3,1] + 4 x[3,2] + 4 x[3,3]
   + x[3,4] + 3 x[3,5] + 5 x[3,6] + 3 x[3,7] + 5 x[4,0] + x[4,1] + 2 x[4,2]
   + 4 x[4,3] + x[4,4] + 4 x[4,5] + 2 x[4,6] + 2 x[4,7] + x[5,0] + 2 x[5,1]
   + 5 x[5,2] + 2 x[5,3] + 4 x[5,4] + 4 x[5,5] + 4 x[5,6] + 4 x[5,7]
Subject To
 R0: x[0,0] + x[1,0] + x[2,0] + x[3,0] + x[4,0] + x[5,0] >= 908
 R1: x[0,1] + x[1,1] + x[2,1] + x[3,1] + x[4,1] + x[5,1] >= 434
 R2: x[0,2] + x[1,2] + x[2,2] + x[3,2] + x[4,2] + x[5,2] >= 605
 R3: x[0,3] + x[1,3] + x[2,3] + x[3,3] + x[4,3] + x[5,3] >= 480
 R4: x[0,4] + x[1,4] + x[2,4] + x[3,4] + x[4,4] + x[5,4] >= 961
 R5: x[0,5] + x[1,5] + x[2,5] + x[3,5] + x[4,5] + x[5,5] >= 787
 R6: x[0,6] + x[1,6] + x[2,6] + x[3,6] + x[4,6] + x[5,6] >= 401
 R7: x[0,7] + x[1,7] + x[2,7] + x[3,7] + x[4,7] + x[5,7] >= 789
 R8: - 1365 open[0] + x[0,0] + x[0,1] + x[0,2] + x[0,3] + x[0,4] + x[0,5]
   + x[0,6] + x[0,7] <= 0
 R9: - 1929 open[1] + x[1,0] + x[1,1] + x[1,2] + x[1,3] + x[1,4] + x[1,5]
   + x[1,6] + x[1,7] <= 0
 R10: - 1502 open[2] + x[2,0] + x[2,1] + x[2,2] + x[2,3] + x[2,4] + x[2,5]
   + x[2,6] + x[2,7] <= 0
 R11: - 1201 open[3] + x[3,0] + x[3,1] + x[3,2] + x[3,3] + x[3,4] + x[3,5]
   + x[3,6] + x[3,7] <= 0
 R12: - 1529 open[4] + x[4,0] + x[4,1] + x[4,2] + x[4,3] + x[4,4] + x[4,5]
   + x[4,6] + x[4,7] <= 0
 R13: - 961 open[5] + x[5,0] + x[5,1] + x[5,2] + x[5,3] + x[5,4] + x[5,5]
   + x[5,6] + x[5,7] <= 0
Bounds
Binaries
 open[0] open[1] open[2] open[3] open[4] open[5]
End
